NAME          ClpDefau
ROWS
 N  OBJROW
 L  R_96_0
 L  R_96_1
 L  R_96_2
 L  R_96_3
 L  R_96_4
 L  R_96_5
 L  R_96_6
 L  R_96_7
COLUMNS
    x_0       OBJROW     -1.           R_96_0    1.          
    x_0       R_96_1    3.             R_96_3    9.          
    x_0       R_96_5    8.             R_96_6    1.          
    x_1       OBJROW     -2.           R_96_0    6.          
    x_1       R_96_2    9.             R_96_3    3.          
    x_1       R_96_4    1.             R_96_5    3.          
    x_1       R_96_6    9.             R_96_7    9.          
    x_2       OBJROW     -2.           R_96_0    3.          
    x_2       R_96_2    7.             R_96_3    6.          
    x_2       R_96_4    6.             R_96_5    8.          
    x_2       R_96_6    7.             R_96_7    8.          
    x_3       OBJROW     -6.           R_96_0    4.          
    x_3       R_96_1    8.             R_96_2    6.          
    x_3       R_96_3    8.             R_96_5    10.         
    x_3       R_96_6    9.             R_96_7    8.          
    x_4       OBJROW     -3.           R_96_0    6.          
    x_4       R_96_4    8.             R_96_5    9.          
    x_4       R_96_6    9.             R_96_7    10.         
    x_5       OBJROW     -5.           R_96_0    4.          
    x_5       R_96_1    6.             R_96_3    2.          
    x_5       R_96_4    6.             R_96_5    4.          
    x_5       R_96_7    10.         
    x_6       OBJROW     -5.           R_96_0    5.          
    x_6       R_96_1    2.             R_96_2    3.          
    x_6       R_96_4    4.             R_96_6    1.          
    x_6       R_96_7    6.          
    x_7       OBJROW     -10.          R_96_0    1.          
    x_7       R_96_1    2.             R_96_2    1.          
    x_7       R_96_3    3.             R_96_5    3.          
    x_7       R_96_6    1.             R_96_7    1.          
RHS
    RHS       R_96_0    23.            R_96_1    17.         
    RHS       R_96_2    10.            R_96_3    8.          
    RHS       R_96_4    30.            R_96_5    15.         
    RHS       R_96_6    26.            R_96_7    29.         
BOUNDS
 UI BOUND     x_0       10.         
 UI BOUND     x_1       10.         
 UI BOUND     x_2       10.         
 UI BOUND     x_3       10.         
 UI BOUND     x_4       10.         
 UI BOUND     x_5       10.         
 UI BOUND     x_6       10.         
 UI BOUND     x_7       10.         
ENDATA
